NAME /Users/henri/Research/solvers/instances/idol-instances/robust/collection/cbp_Subramanyam_et_al_2020/CapBud_N25_12/models/uncertain_technology_matrix/
ROWS
 N  OBJ
 L  capacity
 L  c_4415
 L  c_4416
 L  c_4417
 L  c_4418
 L  c_4419
 L  c_4420
 L  c_4421
 L  c_4422
 L  c_4423
 L  c_4424
 L  c_4425
 L  c_4426
 L  c_4427
 L  c_4428
 L  c_4429
 L  c_4430
 L  c_4431
 L  c_4432
 L  c_4433
 L  c_4434
 L  c_4435
 L  c_4436
 L  c_4437
 L  c_4438
 L  c_4439
COLUMNS
    MARKER    'MARKER'                 'INTORG'
    x_0        OBJ        -3.82584
    x_0        c_4415     1
    x_0        capacity   0.765168
    x_1        OBJ        -5.23047
    x_1        c_4416     1
    x_1        capacity   1.04609
    x_2        OBJ        -9.70534
    x_2        c_4417     1
    x_2        capacity   1.94107
    x_3        OBJ        -7.19197
    x_3        c_4418     1
    x_3        capacity   1.43839
    x_4        OBJ        -7.93612
    x_4        c_4419     1
    x_4        capacity   1.58722
    x_5        OBJ        -3.52387
    x_5        c_4420     1
    x_5        capacity   0.704775
    x_6        OBJ        -2.58571
    x_6        c_4421     1
    x_6        capacity   0.517142
    x_7        OBJ        -6.86722
    x_7        c_4422     1
    x_7        capacity   1.37344
    x_8        OBJ        -5.42059
    x_8        c_4423     1
    x_8        capacity   1.08412
    x_9        OBJ        -7.81899
    x_9        c_4424     1
    x_9        capacity   1.5638
    x_10       OBJ        -6.91929
    x_10       c_4425     1
    x_10       capacity   1.38386
    x_11       OBJ        -1.98097
    x_11       c_4426     1
    x_11       capacity   0.396194
    x_12       OBJ        -6.47085
    x_12       c_4427     1
    x_12       capacity   1.29417
    x_13       OBJ        -7.41458
    x_13       c_4428     1
    x_13       capacity   1.48292
    x_14       OBJ        -4.54594
    x_14       c_4429     1
    x_14       capacity   0.909188
    x_15       OBJ        -8.21541
    x_15       c_4430     1
    x_15       capacity   1.64308
    x_16       OBJ        -5.47352
    x_16       c_4431     1
    x_16       capacity   1.0947
    x_17       OBJ        -9.32649
    x_17       c_4432     1
    x_17       capacity   1.8653
    x_18       OBJ        -8.44789
    x_18       c_4433     1
    x_18       capacity   1.68958
    x_19       OBJ        -6.3077
    x_19       c_4434     1
    x_19       capacity   1.26154
    x_20       OBJ        -4.41323
    x_20       c_4435     1
    x_20       capacity   0.882645
    x_21       OBJ        -7.69002
    x_21       c_4436     1
    x_21       capacity   1.538
    x_22       OBJ        -3.24016
    x_22       c_4437     1
    x_22       capacity   0.648033
    x_23       OBJ        -2.56355
    x_23       c_4438     1
    x_23       capacity   0.51271
    x_24       OBJ        -1.24377
    x_24       c_4439     1
    x_24       capacity   0.248754
    y_0        OBJ        -3.06067
    y_0        c_4415     1
    y_0        capacity   0.765168
    y_1        OBJ        -4.18438
    y_1        c_4416     1
    y_1        capacity   1.04609
    y_2        OBJ        -7.76427
    y_2        c_4417     1
    y_2        capacity   1.94107
    y_3        OBJ        -5.75357
    y_3        c_4418     1
    y_3        capacity   1.43839
    y_4        OBJ        -6.34889
    y_4        c_4419     1
    y_4        capacity   1.58722
    y_5        OBJ        -2.8191
    y_5        c_4420     1
    y_5        capacity   0.704775
    y_6        OBJ        -2.06857
    y_6        c_4421     1
    y_6        capacity   0.517142
    y_7        OBJ        -5.49378
    y_7        c_4422     1
    y_7        capacity   1.37344
    y_8        OBJ        -4.33647
    y_8        c_4423     1
    y_8        capacity   1.08412
    y_9        OBJ        -6.25519
    y_9        c_4424     1
    y_9        capacity   1.5638
    y_10       OBJ        -5.53543
    y_10       c_4425     1
    y_10       capacity   1.38386
    y_11       OBJ        -1.58478
    y_11       c_4426     1
    y_11       capacity   0.396194
    y_12       OBJ        -5.17668
    y_12       c_4427     1
    y_12       capacity   1.29417
    y_13       OBJ        -5.93166
    y_13       c_4428     1
    y_13       capacity   1.48292
    y_14       OBJ        -3.63675
    y_14       c_4429     1
    y_14       capacity   0.909188
    y_15       OBJ        -6.57233
    y_15       c_4430     1
    y_15       capacity   1.64308
    y_16       OBJ        -4.37882
    y_16       c_4431     1
    y_16       capacity   1.0947
    y_17       OBJ        -7.4612
    y_17       c_4432     1
    y_17       capacity   1.8653
    y_18       OBJ        -6.75831
    y_18       c_4433     1
    y_18       capacity   1.68958
    y_19       OBJ        -5.04616
    y_19       c_4434     1
    y_19       capacity   1.26154
    y_20       OBJ        -3.53058
    y_20       c_4435     1
    y_20       capacity   0.882645
    y_21       OBJ        -6.15202
    y_21       c_4436     1
    y_21       capacity   1.538
    y_22       OBJ        -2.59213
    y_22       c_4437     1
    y_22       capacity   0.648033
    y_23       OBJ        -2.05084
    y_23       c_4438     1
    y_23       capacity   0.51271
    y_24       OBJ        -0.995016
    y_24       c_4439     1
    y_24       capacity   0.248754
    MARKER    'MARKER'                 'INTEND'
RHS
    RHS       capacity   72.1798
    RHS       c_4415     1
    RHS       c_4416     1
    RHS       c_4417     1
    RHS       c_4418     1
    RHS       c_4419     1
    RHS       c_4420     1
    RHS       c_4421     1
    RHS       c_4422     1
    RHS       c_4423     1
    RHS       c_4424     1
    RHS       c_4425     1
    RHS       c_4426     1
    RHS       c_4427     1
    RHS       c_4428     1
    RHS       c_4429     1
    RHS       c_4430     1
    RHS       c_4431     1
    RHS       c_4432     1
    RHS       c_4433     1
    RHS       c_4434     1
    RHS       c_4435     1
    RHS       c_4436     1
    RHS       c_4437     1
    RHS       c_4438     1
    RHS       c_4439     1
BOUNDS
 LI BND       x_0        0
 UI BND       x_0        1
 LI BND       x_1        0
 UI BND       x_1        1
 LI BND       x_2        0
 UI BND       x_2        1
 LI BND       x_3        0
 UI BND       x_3        1
 LI BND       x_4        0
 UI BND       x_4        1
 LI BND       x_5        0
 UI BND       x_5        1
 LI BND       x_6        0
 UI BND       x_6        1
 LI BND       x_7        0
 UI BND       x_7        1
 LI BND       x_8        0
 UI BND       x_8        1
 LI BND       x_9        0
 UI BND       x_9        1
 LI BND       x_10       0
 UI BND       x_10       1
 LI BND       x_11       0
 UI BND       x_11       1
 LI BND       x_12       0
 UI BND       x_12       1
 LI BND       x_13       0
 UI BND       x_13       1
 LI BND       x_14       0
 UI BND       x_14       1
 LI BND       x_15       0
 UI BND       x_15       1
 LI BND       x_16       0
 UI BND       x_16       1
 LI BND       x_17       0
 UI BND       x_17       1
 LI BND       x_18       0
 UI BND       x_18       1
 LI BND       x_19       0
 UI BND       x_19       1
 LI BND       x_20       0
 UI BND       x_20       1
 LI BND       x_21       0
 UI BND       x_21       1
 LI BND       x_22       0
 UI BND       x_22       1
 LI BND       x_23       0
 UI BND       x_23       1
 LI BND       x_24       0
 UI BND       x_24       1
 LI BND       y_0        0
 UI BND       y_0        1
 LI BND       y_1        0
 UI BND       y_1        1
 LI BND       y_2        0
 UI BND       y_2        1
 LI BND       y_3        0
 UI BND       y_3        1
 LI BND       y_4        0
 UI BND       y_4        1
 LI BND       y_5        0
 UI BND       y_5        1
 LI BND       y_6        0
 UI BND       y_6        1
 LI BND       y_7        0
 UI BND       y_7        1
 LI BND       y_8        0
 UI BND       y_8        1
 LI BND       y_9        0
 UI BND       y_9        1
 LI BND       y_10       0
 UI BND       y_10       1
 LI BND       y_11       0
 UI BND       y_11       1
 LI BND       y_12       0
 UI BND       y_12       1
 LI BND       y_13       0
 UI BND       y_13       1
 LI BND       y_14       0
 UI BND       y_14       1
 LI BND       y_15       0
 UI BND       y_15       1
 LI BND       y_16       0
 UI BND       y_16       1
 LI BND       y_17       0
 UI BND       y_17       1
 LI BND       y_18       0
 UI BND       y_18       1
 LI BND       y_19       0
 UI BND       y_19       1
 LI BND       y_20       0
 UI BND       y_20       1
 LI BND       y_21       0
 UI BND       y_21       1
 LI BND       y_22       0
 UI BND       y_22       1
 LI BND       y_23       0
 UI BND       y_23       1
 LI BND       y_24       0
 UI BND       y_24       1
ENDATA
